
 # a variable named `cutoff` is required by GROMOS_54A7_ATB.lt
 variable cutoff equal 14.0 # Angstroms
 boundary p p p
        units real
        atom_style      angle
        bond_style      harmonic
        angle_style     harmonic
		pair_style      lj/cut ${cutoff}
  
 
