       #     atom_id      mass         
        mass 1            27
        mass 2            44
        mass 3            44
        mass 4            76
        mass 5            42
        

       #           atom_i       atom_j       epsilon                  sigma                    
        pair_coeff 1      1     0.1 3.9
        pair_coeff 1      2     0.1 4.1
        pair_coeff 1      3     0.1 4.0
        pair_coeff 1      4     0.1 4.1
        pair_coeff 1      5     0.1 4.3
        pair_coeff 2      2     0.1 4.0
        pair_coeff 2      3     0.1 4.3
        pair_coeff 2      4     0.1 5.4
        pair_coeff 2      5     0.1 4.2
        pair_coeff 3      3     0.1 4.1
        pair_coeff 3      4     0.1 3.8
        pair_coeff 3      5     0.1 4.2
        pair_coeff 4      4     0.1 3.7
        pair_coeff 4      5     0.1 3.3
        pair_coeff 5      5     0.1 2.8
        

       #           bond_id     k_harmonic               r0             
        bond_coeff 1    100.0 1.9
        bond_coeff 2    6.5 3.6
        bond_coeff 3    6.9 3.6
        bond_coeff 4    4.2 3.5
        bond_coeff 5    5.8 3.5
        bond_coeff 6    3.8 3.4
        bond_coeff 7    58.4 3.8
        bond_coeff 8    147.8 2.95
        bond_coeff 9    156.6 2.95
        bond_coeff 10   56.4 3.8
        bond_coeff 11   3.4 3.4
        bond_coeff 12   4.7 3.5
        bond_coeff 13   5.8 3.6
        bond_coeff 14   5.5 3.5
        bond_coeff 15   5.6 3.5
        bond_coeff 16   100 1.9
        

       

       #            angle_id     k_harmonic               theta0         
        angle_coeff 1    4.2 127.8
        angle_coeff 2    2.2 131.6
        angle_coeff 3    1.9 127.8
        angle_coeff 4    2.1 107.4
        angle_coeff 5    2.6 103.2
        angle_coeff 6    1.8 123.8
        angle_coeff 7    66.6 159.8
        angle_coeff 8    32 105.4
        angle_coeff 9    61.9 160.5
        angle_coeff 10   2.9 128.3
        angle_coeff 11   2.1 122.9
        angle_coeff 12   2 132.5
        angle_coeff 13   2.1 123.9
        angle_coeff 14   1.7 133.3
        angle_coeff 15   4.6 134.0
        